p cnf 17 18
1 2 3 0
-1 -2 -3 0
3 9 10 0
-3 -9 -10 0
4 6 8 0
-4 -6 -8 0
5 15 16 0
-5 -15 -16 0
6 11 13 0
-6 -11 -13 0
7 9 11 0
-7 -9 -11 0
8 15 17 0
-8 -15 -17 0
9 12 14 0
-9 -12 -14 0
11 14 16 0
-11 -14 -16 0
